(assert (forall ((pkt_0_4_6_0  Int  )(state_group_0_state_0_5_7_0  Int  )(state_group_0_state_1_6_8_0  Int  )) (let ((_n0 state_group_0_state_0_5_7_0 ))
(let ((_n1 2 ))
(let ((_n2 (ite (=  _n0  1)  _n1   _n0  ) ))
(let ((_n3 state_group_0_state_1_6_8_0 ))
(let ((_n4 false ))
(let ((_n5 (ite (=  _n0  1)  (ite  _n4  1 0)   _n3  ) ))
(let ((_n6 3 ))
(let ((_n7 (ite (=  _n5  999)  _n6   _n2  ) ))
(let ((_n8 (ite (=  _n2  2)  _n7   _n2  ) ))
(let ((_n9 true ))
(let ((_n10 (=   _n0   (ite  _n9  1 0) ) ))
(let ((_n11 (ite (=  _n0  1)  (ite  _n4  1 0)   _n0  ) ))
(let ((_n12 (=   _n11   _n1 ) ))
(let ((_n13 (ite (=  _n0  1)  _n4   _n12  ) ))
(let ((_n14 (not  _n13 ) ))
(let ((_n15 (or   _n14   _n10 ) ))
(let ((_n16 999 ))
(let ((_n17 (ite  _n15   (ite  _n4  1 0)   _n3  ) ))
(let ((_n18 (=   _n17   _n16 ) ))
(let ((_n19 (ite  _n15   _n4   _n18  ) ))
(let ((_n20 (not  _n19 ) ))
(let ((_n21 (or   _n20   _n15 ) ))
(let ((_n22 (not  _n21 ) ))
(let ((_n23 (-  (ite  _n22  1 0) )))
(let ((_n24 4 ))
(let ((_n25 (ite  _n21   (ite  _n4  1 0)   _n24  ) ))
(let ((_n26 (+   _n25   _n23 ) ))
(let ((_n27 (ite  _n21   (ite  _n4  1 0)   _n26  ) ))
(let ((_n28 (ite  _n21   _n0   (ite  _n4  1 0)  ) ))
(let ((_n29 (+   _n28   _n27 ) ))
(let ((_n30 (ite (=  (ite  _n19  1 0)  1)  _n29   _n0  ) ))
(let ((_n31 (ite (=  (ite  _n13  1 0)  1)  _n30   _n0  ) ))
(let ((_n32 (+   _n0   (ite  _n10  1 0) ) ))
(let ((_n33 (ite (=  (ite  _n10  1 0)  1)  _n32   _n31  ) ))
(let ((_n34 (=   _n33   _n8 ) ))
(let ((_n36 (+   _n5   (ite  _n9  1 0) ) ))
(let ((_n37 (ite (=  _n2  2)  _n36   _n5  ) ))
(let ((_n38 (or   _n19   _n15 ) ))
(let ((_n39 (not  _n38 ) ))
(let ((_n40 (+   _n3   (ite  _n39  1 0) ) ))
(let ((_n41 (+   _n3   (ite  _n22  1 0) ) ))
(let ((_n42 (ite (=  (ite  _n19  1 0)  1)  _n41   _n40  ) ))
(let ((_n43 (ite (=  (ite  _n13  1 0)  1)  _n42   _n3  ) ))
(let ((_n44 (+   _n5   (ite  _n10  1 0) ) ))
(let ((_n45 (ite (=  (ite  _n10  1 0)  1)  _n44   _n43  ) ))
(let ((_n46 (=   _n45   _n37 ) ))
(let ((_n48 pkt_0_4_6_0 ))
(implies  (and (and (>= state_group_0_state_1_6_8_0 0) (< state_group_0_state_1_6_8_0 1024 ))  (and (and (>= state_group_0_state_0_5_7_0 0) (< state_group_0_state_0_5_7_0 1024 ))  (and (>= pkt_0_4_6_0 0) (< pkt_0_4_6_0 1024 )) ) )   (and  _n34  _n46 )  ))))))))))))))))))))))))))))))))))))))))))))))))))
(check-sat)
(get-model)
(exit)